(set-logic QF_UFIDL)
(declare-fun ff.add (Int Int) Int)
(declare-fun ff.mul (Int Int) Int)
(declare-fun ff.sub (Int Int) Int)
(declare-fun ff.range (Int Int Int) Bool)
(declare-fun v_0 () Int)
(declare-fun v_1 () Int)
(declare-fun v_12 () Int)
(declare-fun v_2 () Int)
(declare-fun v_3 () Int)
(declare-fun v_4 () Int)
(declare-fun v_5 () Int)
(declare-fun v_6 () Int)
(declare-fun v_7 () Int)
(declare-fun v_8 () Int)
(declare-fun v_9 () Int)
(declare-fun v_10 () Int)
(declare-fun v_11 () Int)
(assert (let ((.def_0 (= v_12 v_2))) (let ((.def_1 (= v_2 0))) (let ((.def_2 (= v_2 v_8))) (let ((.def_3 (= v_8 v_7))) (let ((.def_4 (ff.mul v_9 4))) (let ((.def_5 (ff.mul .def_4 4))) (let ((.def_6 (= v_8 .def_5))) (let ((.def_7 (ff.sub 1 v_11))) (let ((.def_8 (ff.mul v_11 .def_7))) (let ((.def_9 (= .def_8 0))) (let ((.def_10 (ff.sub 1 v_10))) (let ((.def_11 (ff.mul v_10 .def_10))) (let ((.def_12 (= .def_11 0))) (let ((.def_13 (ff.sub 1 v_9))) (let ((.def_14 (ff.mul v_9 .def_13))) (let ((.def_15 (= .def_14 0))) (let ((.def_16 (ff.mul v_11 4))) (let ((.def_17 (ff.mul v_10 2))) (let ((.def_18 (ff.mul v_9 1))) (let ((.def_19 (ff.add .def_18 .def_17))) (let ((.def_20 (ff.add .def_19 .def_16))) (let ((.def_21 (= v_7 .def_20))) (let ((.def_22 (and .def_21 .def_15))) (let ((.def_23 (and .def_22 .def_12))) (let ((.def_24 (and .def_23 .def_9))) (let ((.def_25 (and .def_24 .def_6))) (let ((.def_26 (= v_5 1))) (let ((.def_27 (ite .def_26 .def_25 .def_3))) (let ((.def_28 (= v_7 v_0))) (let ((.def_29 (ff.mul v_10 4))) (let ((.def_30 (ff.mul .def_29 4))) (let ((.def_31 (ff.mul v_9 2))) (let ((.def_32 (ff.mul .def_31 2))) (let ((.def_33 (ff.add .def_32 .def_30))) (let ((.def_34 (= v_7 .def_33))) (let ((.def_35 (= v_0 .def_20))) (let ((.def_36 (and .def_35 .def_15))) (let ((.def_37 (and .def_36 .def_12))) (let ((.def_38 (and .def_37 .def_9))) (let ((.def_39 (and .def_38 .def_34))) (let ((.def_40 (= v_4 1))) (let ((.def_41 (ite .def_40 .def_39 .def_28))) (let ((.def_42 (ff.sub 1 v_6))) (let ((.def_43 (ff.mul v_6 .def_42))) (let ((.def_44 (= .def_43 0))) (let ((.def_45 (ff.sub 1 v_5))) (let ((.def_46 (ff.mul v_5 .def_45))) (let ((.def_47 (= .def_46 0))) (let ((.def_48 (ff.sub 1 v_4))) (let ((.def_49 (ff.mul v_4 .def_48))) (let ((.def_50 (= .def_49 0))) (let ((.def_51 (ff.mul v_6 4))) (let ((.def_52 (ff.mul v_5 2))) (let ((.def_53 (ff.mul v_4 1))) (let ((.def_54 (ff.add .def_53 .def_52))) (let ((.def_55 (ff.add .def_54 .def_51))) (let ((.def_56 (= v_1 .def_55))) (let ((.def_57 (and .def_56 .def_50))) (let ((.def_58 (and .def_57 .def_47))) (let ((.def_59 (and .def_58 .def_44))) (let ((.def_60 (and .def_59 .def_41))) (let ((.def_61 (and .def_60 .def_27))) (let ((.def_62 (and .def_61 .def_2))) (let ((.def_63 (= v_3 1))) (let ((.def_64 (ite .def_63 .def_62 .def_1))) (let ((.def_65 (ff.range v_1 0 2))) (let ((.def_66 (ite .def_65 1 0))) (let ((.def_67 (= v_3 .def_66))) (let ((.def_68 (and .def_67 .def_64))) (let ((.def_69 (and .def_68 .def_0))) .def_69)))))))))))))))))))))))))))))))))))))))))))))))))))))))))))))))))))))))
(check-sat)
